p cnf 1283
-21 -399
-22 -402
-23 -405
-24 -408
-25 -411
-26 -414
-27 -417
-28 -420
-29 -423
-30 -426
-31 -429
-32 -432
-33 -435
-34 -438
-35 -441
-36 -444
-37 -447
-38 -450
-39 -453
-40 -456
-41 457
-42 458
-43 459
-44 460
-45 461
-46 462
-47 463
-48 464
-49 -22
-49 -23
22 23 49
-50 -24
-50 -25
24 25 50
-51 -26
-51 -27
26 27 51
-52 -28
-52 -29
28 29 52
-53 -30
-53 -31
30 31 53
-54 -32
-54 -33
32 33 54
-55 -34
-55 -35
34 35 55
-56 -36
-56 -37
36 37 56
-57 -38
-57 -39
38 39 57
-58 -40
-58 -41
40 41 58
-59 -42
-59 -43
42 43 59
-60 -44
-60 -45
44 45 60
-61 -46
-61 -47
46 47 61
-62 49
-62 50
-49 -50 62
-63 51
-63 52
-51 -52 63
-64 53
-64 54
-53 -54 64
-65 55
-65 56
-55 -56 65
-66 57
-66 58
-57 -58 66
-67 59
-67 60
-59 -60 67
-68 -48
-68 61
48 -61 68
-69 62
-69 63
-62 -63 69
-70 64
-70 65
-64 -65 70
-71 66
-71 67
-66 -67 71
-72 69
-72 70
-69 -70 72
-73 68
-73 71
-68 -71 73
-74 72
-74 73
-72 -73 74
-75 -21
-75 22
21 -22 75
-76 21
-76 -22
-21 22 76
-77 -75
-77 -76
75 76 77
-78 21
-78 22
-21 -22 78
-79 -21
-79 -77
21 77 79
-80 21
-80 77
-21 -77 80
-81 -79
-81 -80
79 80 81
-82 21
-82 -77
-21 77 82
-83 -78
-83 -82
78 82 83
-84 -22
-84 23
22 -23 84
-85 22
-85 -23
-22 23 85
-86 -84
-86 -85
84 85 86
-87 22
-87 23
-22 -23 87
-88 83
-88 -86
-83 86 88
-89 -83
-89 86
83 -86 89
-90 -88
-90 -89
88 89 90
-91 -83
-91 -86
83 86 91
-92 -87
-92 -91
87 91 92
-93 -23
-93 24
23 -24 93
-94 23
-94 -24
-23 24 94
-95 -93
-95 -94
93 94 95
-96 23
-96 24
-23 -24 96
-97 92
-97 -95
-92 95 97
-98 -92
-98 95
92 -95 98
-99 -97
-99 -98
97 98 99
-100 -92
-100 -95
92 95 100
-101 -96
-101 -100
96 100 101
-102 -24
-102 25
24 -25 102
-103 24
-103 -25
-24 25 103
-104 -102
-104 -103
102 103 104
-105 24
-105 25
-24 -25 105
-106 101
-106 -104
-101 104 106
-107 -101
-107 104
101 -104 107
-108 -106
-108 -107
106 107 108
-109 -101
-109 -104
101 104 109
-110 -105
-110 -109
105 109 110
-111 -25
-111 26
25 -26 111
-112 25
-112 -26
-25 26 112
-113 -111
-113 -112
111 112 113
-114 25
-114 26
-25 -26 114
-115 110
-115 -113
-110 113 115
-116 -110
-116 113
110 -113 116
-117 -115
-117 -116
115 116 117
-118 -110
-118 -113
110 113 118
-119 -114
-119 -118
114 118 119
-120 -26
-120 27
26 -27 120
-121 26
-121 -27
-26 27 121
-122 -120
-122 -121
120 121 122
-123 26
-123 27
-26 -27 123
-124 119
-124 -122
-119 122 124
-125 -119
-125 122
119 -122 125
-126 -124
-126 -125
124 125 126
-127 -119
-127 -122
119 122 127
-128 -123
-128 -127
123 127 128
-129 -27
-129 28
27 -28 129
-130 27
-130 -28
-27 28 130
-131 -129
-131 -130
129 130 131
-132 27
-132 28
-27 -28 132
-133 128
-133 -131
-128 131 133
-134 -128
-134 131
128 -131 134
-135 -133
-135 -134
133 134 135
-136 -128
-136 -131
128 131 136
-137 -132
-137 -136
132 136 137
-138 -28
-138 29
28 -29 138
-139 28
-139 -29
-28 29 139
-140 -138
-140 -139
138 139 140
-141 28
-141 29
-28 -29 141
-142 137
-142 -140
-137 140 142
-143 -137
-143 140
137 -140 143
-144 -142
-144 -143
142 143 144
-145 -137
-145 -140
137 140 145
-146 -141
-146 -145
141 145 146
-147 -29
-147 30
29 -30 147
-148 29
-148 -30
-29 30 148
-149 -147
-149 -148
147 148 149
-150 29
-150 30
-29 -30 150
-151 146
-151 -149
-146 149 151
-152 -146
-152 149
146 -149 152
-153 -151
-153 -152
151 152 153
-154 -146
-154 -149
146 149 154
-155 -150
-155 -154
150 154 155
-156 -30
-156 31
30 -31 156
-157 30
-157 -31
-30 31 157
-158 -156
-158 -157
156 157 158
-159 30
-159 31
-30 -31 159
-160 155
-160 -158
-155 158 160
-161 -155
-161 158
155 -158 161
-162 -160
-162 -161
160 161 162
-163 -155
-163 -158
155 158 163
-164 -159
-164 -163
159 163 164
-165 -31
-165 32
31 -32 165
-166 31
-166 -32
-31 32 166
-167 -165
-167 -166
165 166 167
-168 31
-168 32
-31 -32 168
-169 164
-169 -167
-164 167 169
-170 -164
-170 167
164 -167 170
-171 -169
-171 -170
169 170 171
-172 -164
-172 -167
164 167 172
-173 -168
-173 -172
168 172 173
-174 -32
-174 33
32 -33 174
-175 32
-175 -33
-32 33 175
-176 -174
-176 -175
174 175 176
-177 32
-177 33
-32 -33 177
-178 173
-178 -176
-173 176 178
-179 -173
-179 176
173 -176 179
-180 -178
-180 -179
178 179 180
-181 -173
-181 -176
173 176 181
-182 -177
-182 -181
177 181 182
-183 -33
-183 34
33 -34 183
-184 33
-184 -34
-33 34 184
-185 -183
-185 -184
183 184 185
-186 33
-186 34
-33 -34 186
-187 182
-187 -185
-182 185 187
-188 -182
-188 185
182 -185 188
-189 -187
-189 -188
187 188 189
-190 -182
-190 -185
182 185 190
-191 -186
-191 -190
186 190 191
-192 -34
-192 35
34 -35 192
-193 34
-193 -35
-34 35 193
-194 -192
-194 -193
192 193 194
-195 34
-195 35
-34 -35 195
-196 191
-196 -194
-191 194 196
-197 -191
-197 194
191 -194 197
-198 -196
-198 -197
196 197 198
-199 -191
-199 -194
191 194 199
-200 -195
-200 -199
195 199 200
-201 -35
-201 36
35 -36 201
-202 35
-202 -36
-35 36 202
-203 -201
-203 -202
201 202 203
-204 35
-204 36
-35 -36 204
-205 200
-205 -203
-200 203 205
-206 -200
-206 203
200 -203 206
-207 -205
-207 -206
205 206 207
-208 -200
-208 -203
200 203 208
-209 -204
-209 -208
204 208 209
-210 -36
-210 37
36 -37 210
-211 36
-211 -37
-36 37 211
-212 -210
-212 -211
210 211 212
-213 36
-213 37
-36 -37 213
-214 209
-214 -212
-209 212 214
-215 -209
-215 212
209 -212 215
-216 -214
-216 -215
214 215 216
-217 -209
-217 -212
209 212 217
-218 -213
-218 -217
213 217 218
-219 -37
-219 38
37 -38 219
-220 37
-220 -38
-37 38 220
-221 -219
-221 -220
219 220 221
-222 37
-222 38
-37 -38 222
-223 218
-223 -221
-218 221 223
-224 -218
-224 221
218 -221 224
-225 -223
-225 -224
223 224 225
-226 -218
-226 -221
218 221 226
-227 -222
-227 -226
222 226 227
-228 -38
-228 39
38 -39 228
-229 38
-229 -39
-38 39 229
-230 -228
-230 -229
228 229 230
-231 38
-231 39
-38 -39 231
-232 227
-232 -230
-227 230 232
-233 -227
-233 230
227 -230 233
-234 -232
-234 -233
232 233 234
-235 -227
-235 -230
227 230 235
-236 -231
-236 -235
231 235 236
-237 -39
-237 40
39 -40 237
-238 39
-238 -40
-39 40 238
-239 -237
-239 -238
237 238 239
-240 39
-240 40
-39 -40 240
-241 236
-241 -239
-236 239 241
-242 -236
-242 239
236 -239 242
-243 -241
-243 -242
241 242 243
-244 -236
-244 -239
236 239 244
-245 -240
-245 -244
240 244 245
-246 -40
-246 41
40 -41 246
-247 40
-247 -41
-40 41 247
-248 -246
-248 -247
246 247 248
-249 40
-249 41
-40 -41 249
-250 245
-250 -248
-245 248 250
-251 -245
-251 248
245 -248 251
-252 -250
-252 -251
250 251 252
-253 -245
-253 -248
245 248 253
-254 -249
-254 -253
249 253 254
-255 -41
-255 42
41 -42 255
-256 41
-256 -42
-41 42 256
-257 -255
-257 -256
255 256 257
-258 41
-258 42
-41 -42 258
-259 254
-259 -257
-254 257 259
-260 -254
-260 257
254 -257 260
-261 -259
-261 -260
259 260 261
-262 -254
-262 -257
254 257 262
-263 -258
-263 -262
258 262 263
-264 -42
-264 43
42 -43 264
-265 42
-265 -43
-42 43 265
-266 -264
-266 -265
264 265 266
-267 42
-267 43
-42 -43 267
-268 263
-268 -266
-263 266 268
-269 -263
-269 266
263 -266 269
-270 -268
-270 -269
268 269 270
-271 -263
-271 -266
263 266 271
-272 -267
-272 -271
267 271 272
-273 -43
-273 44
43 -44 273
-274 43
-274 -44
-43 44 274
-275 -273
-275 -274
273 274 275
-276 43
-276 44
-43 -44 276
-277 272
-277 -275
-272 275 277
-278 -272
-278 275
272 -275 278
-279 -277
-279 -278
277 278 279
-280 -272
-280 -275
272 275 280
-281 -276
-281 -280
276 280 281
-282 -44
-282 45
44 -45 282
-283 44
-283 -45
-44 45 283
-284 -282
-284 -283
282 283 284
-285 44
-285 45
-44 -45 285
-286 281
-286 -284
-281 284 286
-287 -281
-287 284
281 -284 287
-288 -286
-288 -287
286 287 288
-289 -281
-289 -284
281 284 289
-290 -285
-290 -289
285 289 290
-291 -45
-291 46
45 -46 291
-292 45
-292 -46
-45 46 292
-293 -291
-293 -292
291 292 293
-294 45
-294 46
-45 -46 294
-295 290
-295 -293
-290 293 295
-296 -290
-296 293
290 -293 296
-297 -295
-297 -296
295 296 297
-298 -290
-298 -293
290 293 298
-299 -294
-299 -298
294 298 299
-300 -46
-300 47
46 -47 300
-301 46
-301 -47
-46 47 301
-302 -300
-302 -301
300 301 302
-303 46
-303 47
-46 -47 303
-304 299
-304 -302
-299 302 304
-305 -299
-305 302
299 -302 305
-306 -304
-306 -305
304 305 306
-307 -299
-307 -302
299 302 307
-308 -303
-308 -307
303 307 308
-309 -47
-309 48
47 -48 309
-310 47
-310 -48
-47 48 310
-311 -309
-311 -310
309 310 311
-312 47
-312 48
-47 -48 312
-313 308
-313 -311
-308 311 313
-314 -308
-314 311
308 -311 314
-315 -313
-315 -314
313 314 315
-316 -308
-316 -311
308 311 316
-317 -312
-317 -316
312 316 317
-318 21
-318 -81
-21 81 318
-319 -21
-319 23
21 -23 319
-320 -318
-320 -319
318 319 320
-321 21
-321 -90
-21 90 321
-322 -21
-322 24
21 -24 322
-323 -321
-323 -322
321 322 323
-324 21
-324 -99
-21 99 324
-325 -21
-325 25
21 -25 325
-326 -324
-326 -325
324 325 326
-327 21
-327 -108
-21 108 327
-328 -21
-328 26
21 -26 328
-329 -327
-329 -328
327 328 329
-330 21
-330 -117
-21 117 330
-331 -21
-331 27
21 -27 331
-332 -330
-332 -331
330 331 332
-333 21
-333 -126
-21 126 333
-334 -21
-334 28
21 -28 334
-335 -333
-335 -334
333 334 335
-336 21
-336 -135
-21 135 336
-337 -21
-337 29
21 -29 337
-338 -336
-338 -337
336 337 338
-339 21
-339 -144
-21 144 339
-340 -21
-340 30
21 -30 340
-341 -339
-341 -340
339 340 341
-342 21
-342 -153
-21 153 342
-343 -21
-343 31
21 -31 343
-344 -342
-344 -343
342 343 344
-345 21
-345 -162
-21 162 345
-346 -21
-346 32
21 -32 346
-347 -345
-347 -346
345 346 347
-348 21
-348 -171
-21 171 348
-349 -21
-349 33
21 -33 349
-350 -348
-350 -349
348 349 350
-351 21
-351 -180
-21 180 351
-352 -21
-352 34
21 -34 352
-353 -351
-353 -352
351 352 353
-354 21
-354 -189
-21 189 354
-355 -21
-355 35
21 -35 355
-356 -354
-356 -355
354 355 356
-357 21
-357 -198
-21 198 357
-358 -21
-358 36
21 -36 358
-359 -357
-359 -358
357 358 359
-360 21
-360 -207
-21 207 360
-361 -21
-361 37
21 -37 361
-362 -360
-362 -361
360 361 362
-363 21
-363 -216
-21 216 363
-364 -21
-364 38
21 -38 364
-365 -363
-365 -364
363 364 365
-366 21
-366 -225
-21 225 366
-367 -21
-367 39
21 -39 367
-368 -366
-368 -367
366 367 368
-369 21
-369 -234
-21 234 369
-370 -21
-370 40
21 -40 370
-371 -369
-371 -370
369 370 371
-372 21
-372 -243
-21 243 372
-373 -21
-373 41
21 -41 373
-374 -372
-374 -373
372 373 374
-375 21
-375 -252
-21 252 375
-376 -21
-376 42
21 -42 376
-377 -375
-377 -376
375 376 377
-378 21
-378 -261
-21 261 378
-379 -21
-379 43
21 -43 379
-380 -378
-380 -379
378 379 380
-381 21
-381 -270
-21 270 381
-382 -21
-382 44
21 -44 382
-383 -381
-383 -382
381 382 383
-384 21
-384 -279
-21 279 384
-385 -21
-385 45
21 -45 385
-386 -384
-386 -385
384 385 386
-387 21
-387 -288
-21 288 387
-388 -21
-388 46
21 -46 388
-389 -387
-389 -388
387 388 389
-390 21
-390 -297
-21 297 390
-391 -21
-391 47
21 -47 391
-392 -390
-392 -391
390 391 392
-393 21
-393 -306
-21 306 393
-394 -21
-394 48
21 -48 394
-395 -393
-395 -394
393 394 395
-396 21
-396 -315
-21 315 396
-397 1
-397 74
-1 -74 397
-398 -74
-398 75
74 -75 398
-399 -397
-399 -398
397 398 399
-400 2
-400 74
-2 -74 400
-401 -74
-401 -320
74 320 401
-402 -400
-402 -401
400 401 402
-403 3
-403 74
-3 -74 403
-404 -74
-404 -323
74 323 404
-405 -403
-405 -404
403 404 405
-406 4
-406 74
-4 -74 406
-407 -74
-407 -326
74 326 407
-408 -406
-408 -407
406 407 408
-409 5
-409 74
-5 -74 409
-410 -74
-410 -329
74 329 410
-411 -409
-411 -410
409 410 411
-412 6
-412 74
-6 -74 412
-413 -74
-413 -332
74 332 413
-414 -412
-414 -413
412 413 414
-415 7
-415 74
-7 -74 415
-416 -74
-416 -335
74 335 416
-417 -415
-417 -416
415 416 417
-418 8
-418 74
-8 -74 418
-419 -74
-419 -338
74 338 419
-420 -418
-420 -419
418 419 420
-421 9
-421 74
-9 -74 421
-422 -74
-422 -341
74 341 422
-423 -421
-423 -422
421 422 423
-424 10
-424 74
-10 -74 424
-425 -74
-425 -344
74 344 425
-426 -424
-426 -425
424 425 426
-427 11
-427 74
-11 -74 427
-428 -74
-428 -347
74 347 428
-429 -427
-429 -428
427 428 429
-430 12
-430 74
-12 -74 430
-431 -74
-431 -350
74 350 431
-432 -430
-432 -431
430 431 432
-433 13
-433 74
-13 -74 433
-434 -74
-434 -353
74 353 434
-435 -433
-435 -434
433 434 435
-436 14
-436 74
-14 -74 436
-437 -74
-437 -356
74 356 437
-438 -436
-438 -437
436 437 438
-439 15
-439 74
-15 -74 439
-440 -74
-440 -359
74 359 440
-441 -439
-441 -440
439 440 441
-442 16
-442 74
-16 -74 442
-443 -74
-443 -362
74 362 443
-444 -442
-444 -443
442 443 444
-445 17
-445 74
-17 -74 445
-446 -74
-446 -365
74 365 446
-447 -445
-447 -446
445 446 447
-448 18
-448 74
-18 -74 448
-449 -74
-449 -368
74 368 449
-450 -448
-450 -449
448 449 450
-451 19
-451 74
-19 -74 451
-452 -74
-452 -371
74 371 452
-453 -451
-453 -452
451 452 453
-454 20
-454 74
-20 -74 454
-455 -74
-455 -374
74 374 455
-456 -454
-456 -455
454 455 456
-457 -74
-457 -377
74 377 457
-458 -74
-458 -380
74 380 458
-459 -74
-459 -383
74 383 459
-460 -74
-460 -386
74 386 460
-461 -74
-461 -389
74 389 461
-462 -74
-462 -392
74 392 462
-463 -74
-463 -395
74 395 463
-464 -74
-464 396
74 -396 464
-465 -48
-465 317
48 -317 465
-466 21
-466 -465
-21 465 466
466
